param n := 120;
param c := 450
param : V : p w :=
   0	  93	  83
   1	  47	  37
   2	 108	  98
   3	  95	  85
   4	  98	  88
   5	 105	  95
   6	  39	  29
   7	  45	  35
   8	 110	 100
   9	  65	  55
  10	  58	  48
  11	  37	  27
  12	  30	  20
  13	  76	  66
  14	  72	  62
  15	  62	  52
  16	  98	  88
  17	  69	  59
  18	 107	  97
  19	 101	  91
  20	  91	  81
  21	  91	  81
  22	  96	  86
  23	  58	  48
  24	  53	  43
  25	  70	  60
  26	  82	  72
  27	  98	  88
  28	 100	  90
  29	  58	  48
  30	  48	  38
  31	  70	  60
  32	  63	  53
  33	  65	  55
  34	 100	  90
  35	  58	  48
  36	  65	  55
  37	  67	  57
  38	  69	  59
  39	  35	  25
  40	  61	  51
  41	  32	  22
  42	  53	  43
  43	  41	  31
  44	  62	  52
  45	  99	  89
  46	 106	  96
  47	  68	  58
  48	  73	  63
  49	  37	  27
  50	  56	  46
  51	  53	  43
  52	  40	  30
  53	  54	  44
  54	  81	  71
  55	  76	  66
  56	  74	  64
  57	  38	  28
  58	  93	  83
  59	  98	  88
  60	  52	  42
  61	 102	  92
  62	 105	  95
  63	  46	  36
  64	  34	  24
  65	  72	  62
  66	  54	  44
  67	  92	  82
  68	  69	  59
  69	  41	  31
  70	 106	  96
  71	  54	  44
  72	  71	  61
  73	  88	  78
  74	  82	  72
  75	  72	  62
  76	  86	  76
  77	  75	  65
  78	  32	  22
  79	  51	  41
  80	  37	  27
  81	  95	  85
  82	  90	  80
  83	  82	  72
  84	 110	 100
  85	  39	  29
  86	  37	  27
  87	  53	  43
  88	  93	  83
  89	  42	  32
  90	  43	  33
  91	  63	  53
  92	 105	  95
  93	 109	  99
  94	  30	  20
  95	  33	  23
  96	  82	  72
  97	  60	  50
  98	  60	  50
  99	  37	  27
 100	  99	  89
 101	  63	  53
 102	  85	  75
 103	  91	  81
 104	  44	  34
 105	  37	  27
 106	  79	  69
 107	  58	  48
 108	  94	  84
 109	  47	  37
 110	  79	  69
 111	  64	  54
 112	  61	  51
 113	  59	  49
 114	  59	  49
 115	  64	  54
 116	 110	 100
 117	  65	  55
 118	  55	  45
 119	  93	  83
;

set E :=
   0	   1
   0	   2
   0	   3
   0	   4
   0	   5
   0	   7
   0	  27
   0	  45
   0	  48
   0	  62
   0	  67
   0	  70
   0	  76
   0	  78
   0	  94
   0	  95
   0	 100
   0	 104
   0	 105
   0	 119
   1	   2
   1	  10
   1	  21
   1	  31
   1	  35
   1	  36
   1	  46
   1	  49
   1	  53
   1	  54
   1	  63
   1	  67
   1	  68
   1	  71
   1	  77
   1	  89
   1	  91
   1	  92
   1	  94
   1	  98
   1	 110
   1	 111
   1	 114
   2	  21
   2	  22
   2	  28
   2	  33
   2	  36
   2	  39
   2	  44
   2	  55
   2	  58
   2	  59
   2	  63
   2	  70
   2	  74
   2	  75
   2	  93
   2	  94
   2	  98
   2	 100
   2	 110
   2	 111
   2	 114
   3	   5
   3	   8
   3	  15
   3	  18
   3	  23
   3	  26
   3	  40
   3	  42
   3	  43
   3	  50
   3	  53
   3	  55
   3	  56
   3	  65
   3	  79
   3	  81
   3	  88
   3	 102
   3	 103
   3	 104
   3	 107
   3	 109
   3	 112
   3	 116
   3	 117
   4	   9
   4	  12
   4	  19
   4	  20
   4	  22
   4	  25
   4	  26
   4	  27
   4	  49
   4	  51
   4	  52
   4	  63
   4	  70
   4	  74
   4	  77
   4	  80
   4	  83
   4	  89
   4	  90
   4	  91
   4	 102
   4	 112
   4	 115
   4	 116
   4	 117
   4	 119
   5	  19
   5	  32
   5	  34
   5	  35
   5	  36
   5	  37
   5	  43
   5	  44
   5	  46
   5	  50
   5	  57
   5	  59
   5	  61
   5	  69
   5	  75
   5	  83
   5	  86
   5	  88
   5	  99
   5	 104
   5	 110
   5	 114
   6	   7
   6	  11
   6	  18
   6	  20
   6	  23
   6	  31
   6	  39
   6	  50
   6	  53
   6	  62
   6	  71
   6	  72
   6	  76
   6	  83
   6	 109
   6	 110
   6	 118
   7	  14
   7	  18
   7	  24
   7	  32
   7	  34
   7	  35
   7	  37
   7	  42
   7	  43
   7	  45
   7	  53
   7	  55
   7	  56
   7	  62
   7	  67
   7	  75
   7	  79
   7	  80
   7	  88
   7	  94
   7	  97
   7	  98
   7	  99
   7	 101
   7	 110
   7	 112
   8	  12
   8	  14
   8	  15
   8	  16
   8	  17
   8	  20
   8	  25
   8	  27
   8	  35
   8	  38
   8	  47
   8	  53
   8	  61
   8	  65
   8	  70
   8	  79
   8	  83
   8	  90
   8	  94
   8	 105
   8	 107
   8	 108
   8	 109
   8	 110
   8	 115
   8	 117
   8	 118
   9	  14
   9	  44
   9	  49
   9	  53
   9	  57
   9	  61
   9	  62
   9	  67
   9	  71
   9	  72
   9	  77
   9	  80
   9	  84
   9	  90
   9	  92
   9	  96
   9	  97
   9	  98
   9	 100
   9	 101
   9	 104
   9	 105
   9	 117
  10	  13
  10	  17
  10	  25
  10	  26
  10	  28
  10	  40
  10	  43
  10	  46
  10	  51
  10	  53
  10	  54
  10	  56
  10	  58
  10	  60
  10	  76
  10	  78
  10	  81
  10	  83
  10	  96
  10	 101
  10	 107
  11	  28
  11	  46
  11	  50
  11	  51
  11	  54
  11	  58
  11	  68
  11	  78
  11	  83
  11	  89
  11	 103
  11	 108
  11	 118
  12	  13
  12	  19
  12	  20
  12	  22
  12	  25
  12	  30
  12	  33
  12	  34
  12	  41
  12	  45
  12	  46
  12	  57
  12	  62
  12	  75
  12	  76
  12	  79
  12	  81
  12	  82
  12	  83
  12	  87
  12	  92
  12	  93
  12	 100
  12	 102
  12	 106
  12	 119
  13	  15
  13	  16
  13	  18
  13	  20
  13	  25
  13	  27
  13	  29
  13	  31
  13	  37
  13	  56
  13	  57
  13	  59
  13	  72
  13	  74
  13	  75
  13	  82
  13	  87
  13	  88
  13	  91
  13	  98
  13	 100
  13	 105
  13	 113
  14	  17
  14	  18
  14	  45
  14	  53
  14	  59
  14	  62
  14	  67
  14	  69
  14	  71
  14	  72
  14	  86
  14	  89
  14	 102
  14	 107
  14	 112
  14	 116
  15	  21
  15	  23
  15	  26
  15	  40
  15	  44
  15	  59
  15	  71
  15	  74
  15	  81
  15	 101
  15	 102
  15	 110
  15	 111
  15	 112
  15	 116
  15	 118
  16	  17
  16	  21
  16	  22
  16	  25
  16	  29
  16	  34
  16	  42
  16	  45
  16	  46
  16	  48
  16	  59
  16	  63
  16	  65
  16	  66
  16	  67
  16	  71
  16	  74
  16	  88
  16	  94
  16	  99
  16	 109
  16	 110
  16	 111
  16	 115
  16	 117
  16	 119
  17	  20
  17	  31
  17	  33
  17	  38
  17	  41
  17	  42
  17	  47
  17	  51
  17	  54
  17	  58
  17	  74
  17	  82
  17	  83
  17	  92
  17	  93
  17	 108
  17	 109
  17	 111
  17	 117
  18	  19
  18	  25
  18	  27
  18	  37
  18	  39
  18	  41
  18	  43
  18	  47
  18	  53
  18	  54
  18	  63
  18	  71
  18	  74
  18	  86
  18	  88
  18	  89
  18	  99
  18	 102
  18	 110
  18	 112
  18	 113
  18	 116
  19	  20
  19	  24
  19	  26
  19	  44
  19	  45
  19	  47
  19	  52
  19	  54
  19	  57
  19	  59
  19	  72
  19	  73
  19	  76
  19	  78
  19	  79
  19	  80
  19	  84
  19	  86
  19	  87
  19	  93
  19	  94
  19	 100
  19	 101
  19	 107
  19	 112
  19	 113
  19	 116
  20	  56
  20	  58
  20	  59
  20	  60
  20	  61
  20	  74
  20	  82
  20	  89
  20	  99
  20	 101
  20	 109
  20	 114
  20	 115
  20	 119
  21	  28
  21	  31
  21	  35
  21	  36
  21	  40
  21	  45
  21	  46
  21	  59
  21	  69
  21	  70
  21	  74
  21	  91
  21	  95
  21	  96
  21	  97
  21	 105
  21	 111
  21	 119
  22	  27
  22	  29
  22	  35
  22	  36
  22	  53
  22	  54
  22	  56
  22	  77
  22	  91
  22	 101
  22	 103
  22	 105
  22	 106
  22	 108
  22	 113
  22	 114
  22	 118
  23	  25
  23	  31
  23	  38
  23	  46
  23	  51
  23	  54
  23	  55
  23	  60
  23	  69
  23	  81
  23	  82
  23	  85
  23	  89
  23	  90
  23	  91
  23	 101
  23	 108
  23	 116
  24	  25
  24	  39
  24	  44
  24	  49
  24	  63
  24	  65
  24	  67
  24	  74
  24	  76
  24	  82
  24	  83
  24	  86
  24	  90
  24	  94
  24	 100
  24	 101
  24	 106
  24	 110
  24	 115
  24	 116
  24	 118
  25	  34
  25	  42
  25	  48
  25	  49
  25	  56
  25	  58
  25	  63
  25	  73
  25	  74
  25	  77
  25	  79
  25	  87
  25	  99
  25	 101
  25	 108
  26	  37
  26	  41
  26	  47
  26	  57
  26	  61
  26	  67
  26	  73
  26	  83
  26	  86
  26	  90
  26	  92
  26	  96
  26	 102
  26	 105
  26	 109
  26	 113
  27	  30
  27	  36
  27	  39
  27	  42
  27	  45
  27	  50
  27	  60
  27	  64
  27	  68
  27	  69
  27	  72
  27	  73
  27	  74
  27	  77
  27	  81
  27	  84
  27	  88
  27	  90
  27	  91
  27	 102
  27	 107
  27	 109
  27	 111
  27	 114
  27	 116
  27	 118
  27	 119
  28	  30
  28	  32
  28	  43
  28	  44
  28	  51
  28	  58
  28	  65
  28	  72
  28	  75
  28	  97
  28	 103
  28	 115
  29	  30
  29	  41
  29	  55
  29	  59
  29	  63
  29	  67
  29	  91
  29	  92
  29	  97
  29	 108
  29	 113
  29	 114
  29	 115
  30	  31
  30	  32
  30	  35
  30	  36
  30	  38
  30	  48
  30	  51
  30	  53
  30	  62
  30	  69
  30	  71
  30	  80
  30	  82
  30	  85
  30	  87
  30	  89
  30	  92
  30	  96
  30	  99
  30	 106
  30	 107
  30	 109
  31	  32
  31	  33
  31	  35
  31	  45
  31	  49
  31	  55
  31	  57
  31	  61
  31	  64
  31	  67
  31	  68
  31	  79
  31	  81
  31	  83
  31	  84
  31	  85
  31	  86
  31	  90
  31	  97
  31	 103
  31	 104
  31	 110
  31	 119
  32	  37
  32	  39
  32	  42
  32	  47
  32	  48
  32	  62
  32	  64
  32	  68
  32	  71
  32	  84
  32	  87
  32	  92
  32	  99
  32	 100
  32	 105
  32	 112
  32	 113
  32	 116
  33	  35
  33	  37
  33	  41
  33	  44
  33	  45
  33	  49
  33	  50
  33	  69
  33	  74
  33	  75
  33	  81
  33	  88
  33	  92
  33	 100
  33	 104
  33	 107
  33	 112
  33	 113
  33	 114
  33	 118
  34	  50
  34	  52
  34	  55
  34	  59
  34	  61
  34	  66
  34	  71
  34	  72
  34	  75
  34	  91
  34	  99
  34	 100
  34	 102
  34	 108
  34	 116
  35	  36
  35	  42
  35	  46
  35	  51
  35	  59
  35	  73
  35	  74
  35	  78
  35	  83
  35	  84
  35	  86
  35	  88
  35	  91
  35	  92
  35	 100
  35	 104
  35	 113
  35	 119
  36	  39
  36	  41
  36	  48
  36	  50
  36	  51
  36	  55
  36	  63
  36	  64
  36	  69
  36	  70
  36	  78
  36	  80
  36	  85
  36	  98
  36	 102
  37	  42
  37	  44
  37	  49
  37	  53
  37	  63
  37	  66
  37	  73
  37	  76
  37	 112
  38	  41
  38	  43
  38	  45
  38	  48
  38	  49
  38	  61
  38	  65
  38	  70
  38	  78
  38	  79
  38	  80
  38	  84
  38	  90
  38	  91
  38	 101
  38	 113
  38	 116
  38	 117
  39	  41
  39	  42
  39	  55
  39	  62
  39	  64
  39	  66
  39	  75
  39	  83
  39	  87
  39	  88
  39	  90
  39	 104
  39	 108
  39	 109
  39	 112
  39	 114
  39	 116
  40	  61
  40	  65
  40	  71
  40	  73
  40	  74
  40	  85
  40	  88
  40	  94
  40	  99
  40	 108
  40	 114
  40	 116
  41	  44
  41	  45
  41	  51
  41	  53
  41	  54
  41	  55
  41	  80
  41	  91
  41	 107
  41	 108
  41	 109
  41	 110
  42	  45
  42	  49
  42	  52
  42	  53
  42	  54
  42	  56
  42	  59
  42	  62
  42	  67
  42	  71
  42	  76
  42	  78
  42	  82
  42	  87
  42	  99
  42	 106
  42	 116
  42	 119
  43	  51
  43	  62
  43	  74
  43	  79
  43	  82
  43	  85
  43	  86
  43	  95
  43	 102
  43	 106
  43	 109
  43	 110
  43	 118
  44	  48
  44	  51
  44	  52
  44	  53
  44	  60
  44	  63
  44	  64
  44	  67
  44	  72
  44	  82
  44	  86
  44	  88
  44	  90
  44	  96
  44	  99
  44	 100
  44	 102
  44	 106
  44	 108
  45	  51
  45	  53
  45	  58
  45	  78
  45	  81
  45	  82
  45	  88
  45	  91
  45	  92
  45	 101
  45	 111
  45	 113
  45	 114
  45	 115
  45	 116
  45	 117
  45	 119
  46	  50
  46	  52
  46	  55
  46	  56
  46	  71
  46	  85
  46	  87
  46	  93
  46	 103
  46	 116
  47	  59
  47	  60
  47	  68
  47	  69
  47	  71
  47	  72
  47	  75
  47	  80
  47	  83
  47	  84
  47	  87
  47	  88
  47	  93
  47	 100
  47	 103
  47	 105
  47	 108
  47	 113
  47	 115
  47	 117
  47	 118
  48	  50
  48	  51
  48	  55
  48	  65
  48	  67
  48	  87
  48	  88
  48	  89
  48	 100
  48	 103
  48	 105
  48	 108
  48	 113
  49	  50
  49	  52
  49	  57
  49	  60
  49	  62
  49	  71
  49	  72
  49	  82
  49	  88
  49	  93
  49	  97
  49	  98
  49	 102
  49	 103
  49	 106
  49	 116
  49	 119
  50	  58
  50	  64
  50	  68
  50	  69
  50	  72
  50	  75
  50	  81
  50	  82
  50	  83
  50	  89
  50	  90
  50	  93
  50	  98
  50	 115
  50	 117
  51	  55
  51	  56
  51	  62
  51	  70
  51	  80
  51	  81
  51	  84
  51	  89
  51	  91
  51	  97
  51	 112
  52	  55
  52	  56
  52	  64
  52	  66
  52	  69
  52	  72
  52	  76
  52	  84
  52	  88
  52	  90
  52	  97
  52	  99
  52	 110
  53	  64
  53	  70
  53	  72
  53	  74
  53	  76
  53	  84
  53	 105
  53	 106
  53	 107
  53	 112
  53	 113
  53	 114
  53	 116
  53	 117
  54	  57
  54	  58
  54	  61
  54	  68
  54	  69
  54	  73
  54	  76
  54	  81
  54	  83
  54	  85
  54	  91
  54	  95
  54	  99
  54	 102
  54	 107
  54	 108
  54	 110
  54	 111
  54	 118
  55	  69
  55	  85
  55	  88
  55	  93
  55	  94
  55	  95
  55	  98
  55	 105
  55	 114
  55	 115
  55	 117
  56	  67
  56	  69
  56	  71
  56	  74
  56	  83
  56	  85
  56	  88
  56	  93
  56	  95
  56	  97
  56	  98
  56	 100
  56	 102
  56	 116
  57	  68
  57	  72
  57	  79
  57	  80
  57	  91
  57	  92
  57	 102
  57	 109
  58	  63
  58	  64
  58	  68
  58	  72
  58	  77
  58	  78
  58	  80
  58	  82
  58	  87
  58	  89
  58	  98
  58	 102
  58	 114
  59	  62
  59	  70
  59	  80
  59	  87
  59	  95
  59	  96
  59	 102
  59	 104
  59	 108
  59	 118
  59	 119
  60	  63
  60	  72
  60	  79
  60	  84
  60	  86
  60	  93
  60	  95
  60	 101
  60	 106
  60	 110
  60	 114
  60	 115
  61	  66
  61	  69
  61	  70
  61	  74
  61	  80
  61	  81
  61	  85
  61	  91
  61	  95
  61	  98
  61	 105
  61	 108
  61	 112
  62	  63
  62	  66
  62	  68
  62	  77
  62	  80
  62	  81
  62	  87
  62	  93
  62	 100
  62	 103
  62	 113
  62	 119
  63	  67
  63	  68
  63	  73
  63	  79
  63	  80
  63	  83
  63	  87
  63	  88
  63	  91
  63	  98
  63	 108
  63	 112
  63	 116
  63	 119
  64	  66
  64	  69
  64	  80
  64	  82
  64	  85
  64	  88
  64	  92
  64	  93
  64	  97
  64	 100
  64	 102
  65	  69
  65	  72
  65	  75
  65	  77
  65	  82
  65	  83
  65	  84
  65	  87
  65	  94
  65	  97
  65	  98
  65	  99
  65	 113
  65	 115
  65	 118
  66	  68
  66	  77
  66	  83
  66	  87
  66	  96
  66	 102
  66	 103
  66	 109
  66	 119
  67	  69
  67	  71
  67	  72
  67	  85
  67	  88
  67	  89
  67	  91
  67	  98
  67	  99
  67	 107
  67	 110
  67	 113
  67	 118
  68	  73
  68	  74
  68	  76
  68	  77
  68	  80
  68	  84
  68	  88
  68	  94
  68	  95
  68	  96
  68	 102
  68	 103
  68	 110
  68	 111
  68	 116
  69	  77
  69	  82
  69	  84
  69	  86
  69	  88
  69	  90
  69	  91
  69	  95
  69	  99
  69	 102
  69	 103
  69	 107
  69	 108
  69	 115
  70	  71
  70	  73
  70	  79
  70	  80
  70	  82
  70	  83
  70	  86
  70	  88
  70	  89
  70	  90
  70	  98
  70	 107
  70	 110
  71	  77
  71	 104
  71	 105
  71	 107
  71	 119
  72	  73
  72	  76
  72	  94
  72	  99
  72	 101
  72	 102
  72	 108
  72	 110
  73	  78
  73	  79
  73	  80
  73	  82
  73	  83
  73	  84
  73	  90
  73	  92
  73	  98
  73	  99
  73	 103
  73	 111
  73	 117
  73	 118
  74	  81
  74	  83
  74	  85
  74	  88
  74	  89
  74	  90
  74	  93
  74	 100
  74	 101
  74	 103
  74	 104
  74	 110
  74	 112
  74	 115
  74	 118
  74	 119
  75	  82
  75	  83
  75	  85
  75	 107
  75	 118
  76	  79
  76	  90
  76	  99
  76	 100
  76	 101
  76	 103
  76	 105
  76	 107
  76	 108
  76	 109
  76	 118
  77	  83
  77	  84
  77	  88
  77	  91
  77	 103
  77	 106
  77	 107
  77	 109
  77	 117
  77	 118
  78	  92
  78	  93
  78	  94
  78	 108
  78	 109
  78	 110
  78	 112
  78	 113
  78	 118
  79	  80
  79	  82
  79	  86
  79	 108
  80	  90
  80	  93
  80	 100
  80	 102
  80	 117
  80	 118
  81	  89
  81	  92
  81	  95
  81	 101
  81	 119
  82	  93
  82	  94
  82	 102
  82	 104
  82	 112
  82	 115
  82	 116
  83	  89
  83	  91
  83	  97
  83	  98
  83	  99
  83	 103
  83	 104
  83	 110
  83	 113
  83	 118
  84	  85
  84	  87
  84	 107
  84	 119
  85	  88
  85	  92
  85	  94
  85	  97
  85	 105
  85	 106
  85	 110
  85	 111
  85	 112
  85	 117
  86	  87
  86	  92
  86	 104
  86	 105
  86	 109
  86	 114
  87	  89
  87	  92
  87	 105
  87	 109
  87	 116
  87	 118
  87	 119
  88	 100
  88	 102
  88	 109
  88	 116
  89	  92
  89	  93
  89	  96
  89	 103
  89	 108
  89	 116
  90	  93
  90	  94
  90	 101
  90	 103
  90	 112
  90	 114
  91	  95
  91	 101
  91	 103
  92	  94
  92	  98
  92	  99
  92	 102
  92	 108
  92	 118
  92	 119
  93	 100
  94	  96
  94	 100
  94	 107
  94	 108
  94	 109
  94	 112
  94	 113
  94	 114
  94	 119
  95	  97
  95	 112
  95	 115
  95	 118
  96	  97
  96	 105
  96	 113
  96	 117
  96	 119
  97	  98
  97	 102
  97	 110
  97	 114
  97	 119
  98	  99
  98	 104
  98	 107
  98	 111
  98	 114
  98	 116
  98	 119
  99	 101
  99	 103
  99	 106
  99	 112
  99	 118
 100	 119
 101	 104
 101	 112
 101	 113
 101	 117
 102	 105
 102	 114
 103	 104
 103	 109
 103	 118
 104	 114
 105	 106
 105	 108
 105	 116
 106	 113
 106	 116
 107	 115
 108	 110
 108	 112
 108	 114
 108	 116
 109	 112
 109	 116
 109	 119
 110	 112
 110	 115
 110	 117
 110	 119
 111	 115
 111	 117
 112	 118
 113	 118
 116	 119
 117	 118
;
